741.90 0
0 6 16 49 24 18 50 32 44 3 51 0
0 45 29 5 37 20 70 60 71 69 36 47 48 0
0 4 52 46 34 67 0
0 17 40 39 9 25 55 31 72 12 26 0
0 7 53 14 59 19 54 13 57 15 27 0
0 73 1 22 64 42 43 41 56 23 63 33 0
0 68 2 62 28 61 21 74 30 75 0
0 8 35 11 66 65 38 10 58 0
